NAME : dcb2086
COMMENT : Bonn VLSI data set with 2086 points
COMMENT : Uni Bonn, Research Institute for Discrete Math
COMMENT : Contributed by Andre Rohe
TYPE : TSP
DIMENSION : 2086
EDGE_WEIGHT_TYPE : EUC_2D
NODE_COORD_SECTION
1 0 10
2 0 105
3 0 106
4 0 113
5 0 120
6 0 121
7 0 127
8 0 128
9 0 135
10 0 141
11 0 148
12 0 15
13 0 155
14 0 162
15 0 169
16 0 17
17 0 176
18 0 179
19 0 180
20 0 181
21 0 190
22 0 197
23 0 204
24 0 211
25 0 212
26 0 218
27 0 219
28 0 22
29 0 225
30 0 226
31 0 233
32 0 25
33 0 29
34 0 30
35 0 32
36 0 33
37 0 36
38 0 41
39 0 43
40 0 44
41 0 45
42 0 46
43 0 47
44 0 48
45 0 49
46 0 50
47 0 57
48 0 64
49 0 71
50 0 73
51 0 78
52 0 8
53 0 81
54 0 89
55 0 9
56 0 92
57 0 97
58 0 99
59 2 10
60 2 100
61 2 102
62 2 103
63 2 105
64 2 106
65 2 107
66 2 108
67 2 110
68 2 112
69 2 114
70 2 115
71 2 116
72 2 117
73 2 119
74 2 120
75 2 121
76 2 122
77 2 128
78 2 130
79 2 134
80 2 136
81 2 137
82 2 138
83 2 141
84 2 147
85 2 148
86 2 149
87 2 150
88 2 153
89 2 159
90 2 160
91 2 161
92 2 162
93 2 164
94 2 166
95 2 167
96 2 169
97 2 170
98 2 172
99 2 173
100 2 177
101 2 179
102 2 184
103 2 186
104 2 187
105 2 189
106 2 191
107 2 192
108 2 194
109 2 196
110 2 205
111 2 209
112 2 211
113 2 215
114 2 217
115 2 218
116 2 220
117 2 222
118 2 223
119 2 226
120 2 23
121 2 233
122 2 24
123 2 25
124 2 28
125 2 31
126 2 33
127 2 34
128 2 36
129 2 37
130 2 38
131 2 39
132 2 41
133 2 43
134 2 45
135 2 47
136 2 48
137 2 50
138 2 51
139 2 53
140 2 54
141 2 56
142 2 58
143 2 64
144 2 66
145 2 68
146 2 70
147 2 71
148 2 73
149 2 75
150 2 76
151 2 77
152 2 79
153 2 81
154 2 82
155 2 90
156 2 91
157 2 92
158 2 94
159 2 98
160 5 105
161 5 109
162 5 11
163 5 111
164 5 113
165 5 135
166 5 14
167 5 166
168 5 17
169 5 172
170 5 176
171 5 179
172 5 183
173 5 186
174 5 188
175 5 191
176 5 194
177 5 197
178 5 200
179 5 204
180 5 208
181 5 21
182 5 210
183 5 214
184 5 217
185 5 219
186 5 222
187 5 224
188 5 33
189 5 35
190 5 42
191 5 44
192 5 50
193 5 53
194 5 55
195 5 58
196 5 60
197 5 62
198 5 65
199 5 75
200 5 8
201 5 81
202 5 85
203 5 87
204 5 97
205 5 99
206 8 100
207 8 106
208 8 167
209 8 45
210 8 66
211 9 100
212 9 103
213 9 106
214 9 140
215 9 152
216 9 164
217 9 167
218 9 170
219 9 173
220 9 177
221 9 184
222 9 189
223 9 192
224 9 205
225 9 211
226 9 215
227 9 220
228 9 31
229 9 45
230 9 48
231 9 51
232 9 56
233 9 66
234 9 73
235 9 79
236 9 82
237 9 94
238 10 10
239 10 101
240 10 103
241 10 106
242 10 110
243 10 112
244 10 134
245 10 164
246 10 168
247 10 170
248 10 173
249 10 177
250 10 184
251 10 187
252 10 189
253 10 192
254 10 196
255 10 205
256 10 209
257 10 211
258 10 215
259 10 218
260 10 220
261 10 223
262 10 31
263 10 34
264 10 41
265 10 43
266 10 46
267 10 48
268 10 51
269 10 54
270 10 56
271 10 64
272 10 67
273 10 73
274 10 79
275 10 82
276 10 94
277 10 98
278 11 10
279 11 100
280 11 103
281 11 106
282 11 110
283 11 112
284 11 12
285 11 124
286 11 134
287 11 15
288 11 164
289 11 167
290 11 170
291 11 173
292 11 177
293 11 184
294 11 187
295 11 189
296 11 192
297 11 196
298 11 198
299 11 205
300 11 209
301 11 211
302 11 215
303 11 218
304 11 220
305 11 223
306 11 31
307 11 34
308 11 41
309 11 43
310 11 45
311 11 48
312 11 51
313 11 54
314 11 56
315 11 59
316 11 64
317 11 66
318 11 73
319 11 79
320 11 82
321 11 86
322 11 94
323 11 98
324 12 173
325 12 180
326 12 201
327 12 205
328 12 211
329 12 5
330 12 82
331 12 94
332 15 102
333 15 109
334 15 11
335 15 111
336 15 113
337 15 135
338 15 169
339 15 176
340 15 183
341 15 188
342 15 197
343 15 204
344 15 208
345 15 210
346 15 214
347 15 219
348 15 224
349 15 35
350 15 42
351 15 44
352 15 47
353 15 55
354 15 60
355 15 62
356 15 65
357 15 68
358 15 8
359 15 85
360 15 87
361 15 97
362 15 99
363 16 0
364 16 241
365 17 0
366 17 115
367 17 116
368 17 117
369 17 120
370 17 121
371 17 122
372 17 137
373 17 138
374 17 141
375 17 150
376 17 153
377 17 162
378 17 226
379 17 24
380 17 241
381 17 25
382 17 28
383 17 37
384 17 38
385 17 39
386 17 70
387 17 77
388 17 91
389 17 92
390 18 0
391 18 147
392 18 149
393 18 159
394 18 161
395 18 174
396 18 175
397 18 206
398 18 207
399 18 212
400 18 213
401 18 233
402 18 241
403 18 83
404 18 84
405 18 95
406 18 96
407 19 0
408 25 10
409 25 100
410 25 101
411 25 102
412 25 103
413 25 105
414 25 107
415 25 108
416 25 110
417 25 112
418 25 113
419 25 115
420 25 12
421 25 121
422 25 123
423 25 125
424 25 131
425 25 132
426 25 133
427 25 134
428 25 157
429 25 158
430 25 164
431 25 165
432 25 171
433 25 172
434 25 176
435 25 182
436 25 183
437 25 184
438 25 185
439 25 188
440 25 194
441 25 195
442 25 196
443 25 197
444 25 199
445 25 20
446 25 202
447 25 208
448 25 209
449 25 21
450 25 210
451 25 211
452 25 213
453 25 214
454 25 215
455 25 217
456 25 22
457 25 221
458 25 222
459 25 224
460 25 24
461 25 26
462 25 28
463 25 30
464 25 31
465 25 33
466 25 35
467 25 41
468 25 43
469 25 46
470 25 52
471 25 53
472 25 56
473 25 57
474 25 58
475 25 60
476 25 61
477 25 76
478 25 78
479 25 82
480 25 84
481 25 85
482 25 87
483 25 89
484 25 94
485 25 98
486 28 100
487 28 109
488 28 115
489 28 119
490 28 12
491 28 16
492 28 18
493 28 200
494 28 220
495 28 227
496 28 230
497 28 234
498 28 25
499 28 27
500 28 30
501 28 32
502 28 38
503 28 49
504 28 6
505 28 67
506 28 8
507 28 84
508 28 92
509 28 95
510 31 105
511 31 110
512 31 121
513 31 33
514 31 41
515 31 45
516 31 63
517 31 69
518 31 85
519 31 88
520 32 10
521 32 105
522 32 110
523 32 113
524 32 121
525 32 124
526 32 175
527 32 187
528 32 201
529 32 217
530 32 224
531 32 28
532 32 33
533 32 41
534 32 45
535 32 63
536 32 69
537 32 82
538 32 85
539 32 88
540 32 98
541 33 10
542 33 106
543 33 108
544 33 111
545 33 113
546 33 122
547 33 199
548 33 217
549 33 224
550 33 24
551 33 26
552 33 28
553 33 31
554 33 34
555 33 42
556 33 45
557 33 63
558 33 69
559 33 82
560 33 86
561 33 88
562 33 94
563 33 98
564 34 10
565 34 105
566 34 108
567 34 110
568 34 113
569 34 121
570 34 136
571 34 17
572 34 199
573 34 217
574 34 224
575 34 228
576 34 24
577 34 26
578 34 28
579 34 31
580 34 33
581 34 36
582 34 41
583 34 45
584 34 5
585 34 63
586 34 70
587 34 72
588 34 82
589 34 85
590 34 88
591 34 94
592 34 98
593 35 116
594 35 13
595 35 217
596 35 224
597 35 45
598 35 63
599 35 88
600 38 107
601 38 109
602 38 112
603 38 119
604 38 123
605 38 16
606 38 18
607 38 200
608 38 220
609 38 227
610 38 25
611 38 27
612 38 32
613 38 35
614 38 43
615 38 6
616 38 8
617 38 87
618 38 95
619 40 102
620 40 103
621 40 125
622 40 134
623 40 157
624 40 165
625 40 171
626 40 176
627 40 185
628 40 188
629 40 197
630 40 202
631 40 21
632 40 211
633 40 214
634 40 215
635 40 22
636 40 222
637 40 53
638 40 57
639 40 58
640 40 61
641 41 131
642 41 133
643 41 156
644 41 164
645 41 172
646 41 182
647 41 184
648 41 194
649 41 196
650 41 208
651 41 210
652 41 218
653 41 219
654 41 225
655 41 226
656 41 47
657 41 48
658 41 64
659 41 65
660 41 67
661 41 68
662 41 69
663 41 90
664 41 91
665 46 241
666 48 118
667 48 121
668 48 124
669 48 150
670 48 156
671 48 157
672 48 158
673 48 159
674 48 16
675 48 173
676 48 177
677 48 180
678 48 182
679 48 184
680 48 185
681 48 187
682 48 194
683 48 195
684 48 196
685 48 198
686 48 199
687 48 200
688 48 202
689 48 207
690 48 210
691 48 213
692 48 214
693 48 215
694 48 217
695 48 219
696 48 224
697 48 226
698 48 33
699 48 34
700 48 35
701 48 37
702 48 38
703 48 39
704 48 40
705 48 42
706 48 44
707 48 45
708 48 46
709 48 47
710 48 49
711 48 52
712 48 53
713 48 54
714 48 61
715 48 63
716 48 9
717 49 174
718 51 122
719 51 124
720 51 129
721 51 133
722 51 137
723 51 141
724 51 145
725 51 147
726 51 177
727 51 180
728 51 184
729 51 186
730 51 188
731 51 190
732 51 192
733 51 203
734 51 206
735 51 208
736 51 21
737 51 219
738 51 229
739 51 232
740 51 234
741 51 43
742 51 59
743 51 6
744 51 67
745 51 70
746 51 74
747 51 78
748 51 84
749 55 149
750 55 182
751 55 217
752 55 71
753 55 74
754 55 78
755 56 121
756 56 123
757 56 176
758 56 179
759 56 182
760 56 185
761 56 187
762 56 202
763 56 207
764 56 217
765 56 42
766 56 72
767 56 76
768 57 116
769 57 121
770 57 123
771 57 132
772 57 136
773 57 144
774 57 161
775 57 176
776 57 179
777 57 182
778 57 185
779 57 187
780 57 189
781 57 19
782 57 202
783 57 204
784 57 207
785 57 217
786 57 22
787 57 220
788 57 228
789 57 231
790 57 42
791 57 5
792 57 65
793 57 69
794 57 82
795 58 126
796 58 138
797 58 56
798 61 122
799 61 124
800 61 129
801 61 133
802 61 137
803 61 141
804 61 145
805 61 147
806 61 177
807 61 180
808 61 186
809 61 188
810 61 190
811 61 192
812 61 203
813 61 208
814 61 229
815 61 232
816 61 234
817 61 43
818 61 59
819 61 6
820 61 70
821 61 73
822 61 77
823 62 0
824 63 118
825 63 150
826 63 159
827 63 195
828 63 196
829 63 199
830 63 200
831 63 210
832 63 214
833 63 215
834 63 34
835 63 35
836 63 38
837 63 39
838 63 40
839 63 45
840 63 46
841 63 47
842 63 49
843 63 53
844 63 54
845 63 61
846 63 63
847 63 9
848 64 156
849 64 158
850 64 16
851 64 174
852 71 102
853 71 103
854 71 107
855 71 108
856 71 113
857 71 122
858 71 123
859 71 127
860 71 128
861 71 132
862 71 133
863 71 138
864 71 150
865 71 157
866 71 160
867 71 162
868 71 163
869 71 164
870 71 166
871 71 168
872 71 169
873 71 171
874 71 185
875 71 186
876 71 190
877 71 191
878 71 194
879 71 195
880 71 196
881 71 201
882 71 203
883 71 206
884 71 211
885 71 212
886 71 213
887 71 223
888 71 225
889 71 56
890 71 57
891 71 58
892 71 59
893 71 63
894 71 69
895 71 81
896 71 82
897 71 85
898 71 91
899 71 93
900 71 94
901 71 97
902 71 98
903 72 100
904 72 125
905 72 188
906 72 64
907 74 11
908 74 147
909 74 15
910 74 161
911 74 165
912 74 170
913 74 172
914 74 176
915 74 180
916 74 182
917 74 19
918 74 210
919 74 218
920 74 228
921 74 231
922 74 233
923 74 26
924 74 34
925 74 7
926 77 162
927 77 166
928 78 12
929 78 15
930 78 162
931 78 166
932 78 19
933 78 74
934 79 115
935 79 13
936 79 140
937 79 160
938 79 162
939 79 167
940 79 169
941 79 17
942 79 171
943 80 0
944 80 146
945 80 160
946 80 162
947 80 166
948 80 169
949 80 171
950 80 179
951 80 208
952 80 219
953 80 227
954 80 230
955 80 35
956 80 5
957 80 74
958 81 173
959 81 215
960 81 22
961 81 8
962 84 11
963 84 14
964 84 147
965 84 161
966 84 165
967 84 168
968 84 170
969 84 172
970 84 176
971 84 18
972 84 180
973 84 182
974 84 218
975 84 228
976 84 231
977 84 233
978 86 103
979 86 113
980 86 122
981 86 128
982 86 138
983 86 150
984 86 185
985 86 191
986 86 194
987 86 201
988 86 203
989 86 206
990 86 212
991 86 213
992 86 56
993 86 58
994 86 65
995 86 69
996 86 82
997 86 88
998 86 92
999 86 97
1000 87 101
1001 87 107
1002 87 126
1003 87 132
1004 87 157
1005 87 189
1006 87 195
1007 87 55
1008 87 57
1009 87 66
1010 87 70
1011 87 80
1012 87 89
1013 87 93
1014 94 100
1015 94 104
1016 94 105
1017 94 108
1018 94 109
1019 94 110
1020 94 115
1021 94 117
1022 94 120
1023 94 121
1024 94 125
1025 94 126
1026 94 129
1027 94 130
1028 94 131
1029 94 136
1030 94 138
1031 94 154
1032 94 158
1033 94 160
1034 94 161
1035 94 162
1036 94 164
1037 94 167
1038 94 172
1039 94 173
1040 94 177
1041 94 178
1042 94 181
1043 94 182
1044 94 183
1045 94 188
1046 94 190
1047 94 193
1048 94 194
1049 94 198
1050 94 199
1051 94 202
1052 94 203
1053 94 204
1054 94 209
1055 94 211
1056 94 221
1057 94 223
1058 94 234
1059 94 51
1060 94 6
1061 94 87
1062 94 88
1063 94 89
1064 94 99
1065 95 102
1066 95 123
1067 95 175
1068 95 196
1069 97 10
1070 97 13
1071 97 159
1072 97 165
1073 97 17
1074 97 170
1075 97 216
1076 97 226
1077 97 229
1078 97 231
1079 97 55
1080 97 57
1081 97 60
1082 97 62
1083 97 65
1084 97 68
1085 97 70
1086 97 73
1087 97 75
1088 97 80
1089 97 84
1090 97 92
1091 97 94
1092 97 96
1093 99 0
1094 100 166
1095 101 166
1096 101 77
1097 101 80
1098 101 84
1099 102 158
1100 102 164
1101 102 166
1102 102 78
1103 102 82
1104 103 11
1105 103 144
1106 103 158
1107 103 164
1108 103 166
1109 103 217
1110 103 225
1111 103 228
1112 103 49
1113 103 54
1114 103 59
1115 103 64
1116 103 66
1117 103 69
1118 103 72
1119 103 8
1120 103 91
1121 103 93
1122 104 166
1123 104 213
1124 107 159
1125 107 165
1126 107 216
1127 107 226
1128 107 229
1129 107 231
1130 107 55
1131 107 57
1132 107 60
1133 107 62
1134 107 65
1135 107 70
1136 107 73
1137 107 75
1138 107 79
1139 107 83
1140 107 92
1141 107 94
1142 107 96
1143 109 105
1144 109 108
1145 109 115
1146 109 117
1147 109 120
1148 109 126
1149 109 129
1150 109 136
1151 109 138
1152 109 161
1153 109 162
1154 109 172
1155 109 178
1156 109 181
1157 109 188
1158 109 190
1159 109 193
1160 109 199
1161 109 202
1162 109 209
1163 109 211
1164 109 234
1165 109 51
1166 109 6
1167 109 87
1168 109 88
1169 109 89
1170 109 99
1171 110 103
1172 110 109
1173 110 124
1174 110 130
1175 110 154
1176 110 168
1177 110 169
1178 110 176
1179 110 182
1180 110 197
1181 110 203
1182 117 107
1183 117 108
1184 117 110
1185 117 122
1186 117 123
1187 117 124
1188 117 125
1189 117 151
1190 117 152
1191 117 156
1192 117 157
1193 117 160
1194 117 161
1195 117 162
1196 117 167
1197 117 18
1198 117 181
1199 117 185
1200 117 189
1201 117 19
1202 117 191
1203 117 192
1204 117 193
1205 117 195
1206 117 197
1207 117 209
1208 117 21
1209 117 23
1210 117 233
1211 117 24
1212 117 26
1213 117 27
1214 117 28
1215 117 30
1216 117 31
1217 117 33
1218 117 34
1219 117 35
1220 117 37
1221 117 39
1222 117 45
1223 117 47
1224 117 6
1225 117 62
1226 117 63
1227 117 96
1228 117 97
1229 118 111
1230 118 154
1231 120 10
1232 120 13
1233 120 149
1234 120 17
1235 120 174
1236 120 176
1237 120 188
1238 120 190
1239 120 201
1240 120 207
1241 120 23
1242 120 41
1243 120 43
1244 120 49
1245 120 55
1246 120 61
1247 120 67
1248 120 69
1249 120 71
1250 120 74
1251 123 184
1252 123 195
1253 123 241
1254 123 37
1255 123 45
1256 124 141
1257 124 184
1258 124 195
1259 124 21
1260 124 24
1261 124 37
1262 124 45
1263 125 184
1264 125 189
1265 125 196
1266 125 208
1267 125 21
1268 125 38
1269 125 46
1270 126 0
1271 126 11
1272 126 141
1273 126 148
1274 126 169
1275 126 173
1276 126 180
1277 126 184
1278 126 189
1279 126 195
1280 126 208
1281 126 21
1282 126 223
1283 126 26
1284 126 37
1285 126 40
1286 126 45
1287 126 48
1288 126 65
1289 126 68
1290 126 73
1291 126 75
1292 126 8
1293 127 184
1294 127 198
1295 127 52
1296 130 149
1297 130 174
1298 130 176
1299 130 190
1300 130 197
1301 130 201
1302 130 207
1303 130 39
1304 130 41
1305 130 43
1306 130 47
1307 130 49
1308 130 55
1309 130 61
1310 130 69
1311 130 71
1312 130 74
1313 132 122
1314 132 124
1315 132 151
1316 132 157
1317 132 160
1318 132 167
1319 132 19
1320 132 192
1321 132 193
1322 132 31
1323 132 34
1324 132 35
1325 132 6
1326 132 63
1327 132 96
1328 133 106
1329 133 112
1330 133 125
1331 133 155
1332 133 161
1333 133 181
1334 133 186
1335 133 187
1336 133 233
1337 133 95
1338 140 10
1339 140 102
1340 140 103
1341 140 107
1342 140 108
1343 140 113
1344 140 12
1345 140 13
1346 140 14
1347 140 15
1348 140 17
1349 140 179
1350 140 180
1351 140 181
1352 140 184
1353 140 185
1354 140 189
1355 140 19
1356 140 190
1357 140 193
1358 140 194
1359 140 195
1360 140 200
1361 140 202
1362 140 205
1363 140 206
1364 140 210
1365 140 211
1366 140 214
1367 140 215
1368 140 216
1369 140 221
1370 140 223
1371 140 225
1372 140 27
1373 140 28
1374 140 38
1375 140 40
1376 140 45
1377 140 46
1378 140 47
1379 140 6
1380 140 61
1381 140 62
1382 140 66
1383 140 67
1384 140 70
1385 140 71
1386 140 72
1387 140 77
1388 140 79
1389 140 97
1390 140 98
1391 141 100
1392 141 187
1393 141 208
1394 141 64
1395 143 12
1396 143 124
1397 143 129
1398 143 135
1399 143 140
1400 143 146
1401 143 150
1402 143 166
1403 143 172
1404 143 174
1405 143 176
1406 143 19
1407 143 21
1408 143 226
1409 143 229
1410 143 23
1411 143 232
1412 143 236
1413 143 33
1414 143 43
1415 143 52
1416 143 57
1417 143 82
1418 143 84
1419 143 89
1420 143 95
1421 144 0
1422 146 121
1423 146 132
1424 146 49
1425 147 10
1426 147 143
1427 147 146
1428 147 150
1429 147 17
1430 148 10
1431 148 115
1432 148 144
1433 148 148
1434 148 17
1435 148 225
1436 149 10
1437 149 152
1438 149 17
1439 149 173
1440 149 20
1441 149 225
1442 149 227
1443 149 230
1444 149 34
1445 149 42
1446 149 81
1447 150 163
1448 150 30
1449 150 86
1450 153 124
1451 153 129
1452 153 135
1453 153 140
1454 153 145
1455 153 149
1456 153 166
1457 153 172
1458 153 174
1459 153 176
1460 153 21
1461 153 226
1462 153 23
1463 153 33
1464 153 43
1465 153 52
1466 153 57
1467 153 82
1468 153 84
1469 153 89
1470 153 95
1471 155 103
1472 155 113
1473 155 14
1474 155 15
1475 155 179
1476 155 180
1477 155 181
1478 155 184
1479 155 190
1480 155 193
1481 155 200
1482 155 202
1483 155 205
1484 155 211
1485 155 214
1486 155 221
1487 155 223
1488 155 27
1489 155 46
1490 155 47
1491 155 6
1492 155 61
1493 155 67
1494 155 70
1495 155 77
1496 155 79
1497 155 97
1498 156 101
1499 156 107
1500 156 188
1501 156 194
1502 156 209
1503 156 215
1504 156 65
1505 156 71
1506 162 0
1507 163 10
1508 163 105
1509 163 114
1510 163 120
1511 163 128
1512 163 132
1513 163 134
1514 163 136
1515 163 139
1516 163 141
1517 163 144
1518 163 150
1519 163 156
1520 163 157
1521 163 158
1522 163 159
1523 163 197
1524 163 212
1525 163 222
1526 163 227
1527 163 228
1528 163 23
1529 163 25
1530 163 27
1531 163 29
1532 163 31
1533 163 33
1534 163 35
1535 163 37
1536 163 39
1537 163 41
1538 163 43
1539 163 45
1540 163 47
1541 163 49
1542 163 6
1543 163 60
1544 163 61
1545 163 65
1546 163 66
1547 163 70
1548 163 71
1549 163 76
1550 163 85
1551 164 63
1552 166 100
1553 166 11
1554 166 111
1555 166 114
1556 166 116
1557 166 13
1558 166 133
1559 166 135
1560 166 137
1561 166 140
1562 166 144
1563 166 148
1564 166 16
1565 166 162
1566 166 164
1567 166 169
1568 166 174
1569 166 178
1570 166 18
1571 166 180
1572 166 184
1573 166 190
1574 166 194
1575 166 201
1576 166 204
1577 166 208
1578 166 223
1579 166 232
1580 166 236
1581 166 24
1582 166 28
1583 166 32
1584 166 36
1585 166 40
1586 166 44
1587 166 48
1588 166 53
1589 166 57
1590 166 85
1591 166 88
1592 166 90
1593 166 94
1594 166 98
1595 168 241
1596 169 117
1597 169 125
1598 169 166
1599 170 138
1600 170 149
1601 170 187
1602 170 190
1603 170 194
1604 170 22
1605 171 10
1606 171 113
1607 171 132
1608 171 134
1609 171 136
1610 171 138
1611 171 188
1612 171 192
1613 171 211
1614 171 22
1615 171 222
1616 171 78
1617 171 84
1618 172 10
1619 172 104
1620 172 113
1621 172 12
1622 172 132
1623 172 134
1624 172 136
1625 172 138
1626 172 15
1627 172 161
1628 172 177
1629 172 182
1630 172 199
1631 172 202
1632 172 211
1633 172 22
1634 172 222
1635 172 230
1636 172 51
1637 172 56
1638 172 84
1639 172 87
1640 172 92
1641 172 97
1642 173 108
1643 173 145
1644 173 233
1645 176 0
1646 176 100
1647 176 11
1648 176 111
1649 176 114
1650 176 116
1651 176 13
1652 176 133
1653 176 135
1654 176 137
1655 176 148
1656 176 16
1657 176 162
1658 176 164
1659 176 169
1660 176 174
1661 176 178
1662 176 18
1663 176 180
1664 176 189
1665 176 193
1666 176 223
1667 176 236
1668 176 241
1669 176 57
1670 176 85
1671 176 88
1672 176 90
1673 176 98
1674 178 150
1675 178 159
1676 178 197
1677 178 227
1678 178 6
1679 178 60
1680 178 66
1681 178 76
1682 179 105
1683 179 156
1684 179 158
1685 179 64
1686 179 70
1687 186 109
1688 186 11
1689 186 111
1690 186 114
1691 186 13
1692 186 130
1693 186 133
1694 186 134
1695 186 137
1696 186 138
1697 186 142
1698 186 143
1699 186 146
1700 186 147
1701 186 148
1702 186 153
1703 186 155
1704 186 16
1705 186 178
1706 186 179
1707 186 18
1708 186 189
1709 186 190
1710 186 192
1711 186 20
1712 186 204
1713 186 205
1714 186 206
1715 186 207
1716 186 22
1717 186 24
1718 186 26
1719 186 28
1720 186 30
1721 186 32
1722 186 33
1723 186 56
1724 186 57
1725 186 6
1726 186 67
1727 186 68
1728 186 70
1729 186 82
1730 186 83
1731 186 84
1732 186 85
1733 187 140
1734 187 193
1735 187 71
1736 189 11
1737 189 110
1738 189 114
1739 189 120
1740 189 128
1741 189 13
1742 189 130
1743 189 132
1744 189 17
1745 189 21
1746 189 231
1747 189 233
1748 189 25
1749 189 29
1750 193 101
1751 193 108
1752 193 15
1753 193 223
1754 194 10
1755 194 108
1756 194 113
1757 194 129
1758 194 15
1759 195 10
1760 195 101
1761 195 108
1762 195 113
1763 195 129
1764 195 15
1765 195 157
1766 195 223
1767 195 230
1768 195 35
1769 196 116
1770 199 11
1771 199 114
1772 199 13
1773 199 130
1774 199 132
1775 199 231
1776 199 233
1777 201 134
1778 201 137
1779 201 143
1780 201 146
1781 201 153
1782 201 155
1783 201 178
1784 201 204
1785 201 206
1786 201 33
1787 201 56
1788 201 6
1789 201 82
1790 201 84
1791 202 141
1792 202 147
1793 202 177
1794 202 188
1795 202 194
1796 202 207
1797 202 55
1798 202 66
1799 202 72
1800 202 85
1801 209 104
1802 209 105
1803 209 109
1804 209 110
1805 209 113
1806 209 114
1807 209 115
1808 209 120
1809 209 122
1810 209 124
1811 209 125
1812 209 127
1813 209 128
1814 209 130
1815 209 131
1816 209 134
1817 209 135
1818 209 14
1819 209 144
1820 209 146
1821 209 148
1822 209 150
1823 209 152
1824 209 154
1825 209 155
1826 209 156
1827 209 158
1828 209 16
1829 209 160
1830 209 162
1831 209 164
1832 209 165
1833 209 166
1834 209 167
1835 209 169
1836 209 170
1837 209 173
1838 209 175
1839 209 177
1840 209 179
1841 209 18
1842 209 181
1843 209 183
1844 209 184
1845 209 188
1846 209 189
1847 209 192
1848 209 193
1849 209 194
1850 209 199
1851 209 20
1852 209 201
1853 209 204
1854 209 205
1855 209 209
1856 209 210
1857 209 213
1858 209 214
1859 209 215
1860 209 22
1861 209 220
1862 209 222
1863 209 224
1864 209 226
1865 209 228
1866 209 229
1867 209 230
1868 209 24
1869 209 26
1870 209 28
1871 209 30
1872 209 32
1873 209 34
1874 209 35
1875 209 38
1876 209 39
1877 209 41
1878 209 43
1879 209 44
1880 209 47
1881 209 48
1882 209 51
1883 209 52
1884 209 56
1885 209 57
1886 209 60
1887 209 61
1888 209 62
1889 209 67
1890 209 76
1891 209 77
1892 209 81
1893 209 82
1894 209 85
1895 209 86
1896 209 87
1897 209 92
1898 210 107
1899 210 186
1900 210 207
1901 210 54
1902 210 79
1903 212 10
1904 212 101
1905 212 140
1906 212 145
1907 212 148
1908 212 15
1909 212 150
1910 212 153
1911 212 159
1912 212 161
1913 212 163
1914 212 174
1915 212 178
1916 212 181
1917 212 19
1918 212 23
1919 212 235
1920 212 27
1921 212 31
1922 212 34
1923 212 36
1924 212 44
1925 212 48
1926 212 74
1927 212 8
1928 212 99
1929 215 224
1930 215 41
1931 216 13
1932 216 137
1933 216 146
1934 216 172
1935 216 179
1936 216 224
1937 216 32
1938 216 41
1939 216 44
1940 216 48
1941 217 13
1942 217 137
1943 217 144
1944 217 146
1945 217 149
1946 217 152
1947 217 158
1948 217 160
1949 217 162
1950 217 172
1951 217 177
1952 217 179
1953 217 225
1954 217 30
1955 217 32
1956 217 35
1957 217 42
1958 217 46
1959 218 13
1960 218 137
1961 218 144
1962 218 146
1963 218 149
1964 218 152
1965 218 158
1966 218 160
1967 218 162
1968 218 172
1969 218 177
1970 218 179
1971 218 224
1972 218 30
1973 218 32
1974 218 35
1975 218 41
1976 218 69
1977 218 73
1978 218 9
1979 218 94
1980 218 98
1981 219 137
1982 219 232
1983 219 5
1984 222 10
1985 222 101
1986 222 140
1987 222 145
1988 222 150
1989 222 153
1990 222 159
1991 222 161
1992 222 163
1993 222 178
1994 222 226
1995 222 235
1996 222 31
1997 222 36
1998 222 43
1999 222 47
2000 222 74
2001 222 8
2002 222 99
2003 223 241
2004 224 104
2005 224 110
2006 224 113
2007 224 120
2008 224 122
2009 224 125
2010 224 128
2011 224 131
2012 224 135
2013 224 155
2014 224 156
2015 224 165
2016 224 166
2017 224 167
2018 224 170
2019 224 183
2020 224 189
2021 224 192
2022 224 199
2023 224 201
2024 224 204
2025 224 210
2026 224 213
2027 224 220
2028 224 222
2029 224 228
2030 224 229
2031 224 230
2032 224 38
2033 224 39
2034 224 51
2035 224 57
2036 224 60
2037 224 67
2038 224 76
2039 224 82
2040 224 85
2041 224 92
2042 225 108
2043 225 114
2044 225 138
2045 225 140
2046 225 141
2047 225 142
2048 225 187
2049 225 193
2050 225 208
2051 225 214
2052 225 55
2053 225 61
2054 225 80
2055 225 86
2056 241 0
2057 246 10
2058 246 105
2059 246 17
2060 246 193
2061 246 200
2062 246 208
2063 246 216
2064 246 224
2065 246 232
2066 246 25
2067 246 30
2068 246 31
2069 246 32
2070 246 33
2071 246 41
2072 246 43
2073 246 44
2074 246 45
2075 246 46
2076 246 47
2077 246 48
2078 246 49
2079 246 57
2080 246 65
2081 246 73
2082 246 81
2083 246 89
2084 246 9
2085 246 97
2086 246 98
EOF
